NAME : RWPToy-3_0
COMMENT : Toy. 5 postmen. Max route 31304=21599.76s=6h.
TYPE : TSP 
DIMENSION : 4
VEHICLES : 5
SCALE : 100000
DISTANCE : 21599.760000
EDGE_WEIGHT_TYPE : EXPLICIT
EDGE_WEIGHT_FORMAT : UPPER_ROW
EDGE_WEIGHT_SECTION
668.345465
196.342850
2434.608608

774.252790
2883.060737

2276.188780

DEPOT_SECTION
1
-1

EOF
